6 
7 
8 
5 
1 
8 
4 
9 
6 
9 
6 
6 
5 
12 
4 
5 
5 
6 
7 
3 
3 
7 
6 
9 
4 
3 
1 
6 
2 
3 
6 
6 
3 
4 
10 
1 
5 
4 
8 
11 
3 
6 
4 
6 
4 
3 
8 
7 
5 
8 
4 
5 
6 
6 
3 
5 
2 
4 
1 
3 
5 
1 
7 
3 
4 
7 
2 
6 
5 
10 
6 
3 
8 
6 
1 
6 
4 
6 
2 
7 
1 
3 
7 
3 
6 
3 
2 
2 
4 
3 
7 
4 
4 
4 
8 
4 
3 
5 
2 
5 
